
Gurobi 6.0.2 (win64) logging started 06/12/15 16:44:57

Read LP format model from file C:\MT\repository\VRPTWMS\instances\mip\fuel\N5-C_DV100-C_SV25_F5_8_No_1.lp
Reading time = 0.00 seconds
(null): 186 rows, 103 columns, 698 nonzeros
Optimize a model with 186 rows, 103 columns and 698 nonzeros
Model has 150 quadratic constraints
WARNING: Only barrier available for SOCP models
Coefficient statistics:
  Matrix range    [1e+00, 1e+02]
  Objective range [4e+00, 1e+03]
  Bounds range    [1e+00, 1e+02]
  RHS range       [1e+00, 1e+02]
Presolve removed 22 rows and 11 columns
Presolve time: 0.02s
Presolved: 442 rows, 241 columns, 1980 nonzeros
Variable types: 129 continuous, 112 integer (84 binary)
Found heuristic solution: objective 6302.6100000
Optimize a model with 442 rows, 241 columns and 1980 nonzeros
Coefficient statistics:
  Matrix range    [1e+00, 1e+02]
  Objective range [4e+00, 1e+03]
  Bounds range    [1e+00, 1e+02]
  RHS range       [1e+00, 1e+02]
Presolve removed 51 rows and 37 columns
Presolved: 391 rows, 204 columns, 1783 nonzeros


Root relaxation: objective 1.073970e+03, 24 iterations, 0.00 seconds

    Nodes    |    Current Node    |     Objective Bounds      |     Work
 Expl Unexpl |  Obj  Depth IntInf | Incumbent    BestBd   Gap | It/Node Time

     0     0 1073.97000    0   10 6302.61000 1073.97000  83.0%     -    0s
     0     0 1073.97000    0   14 6302.61000 1073.97000  83.0%     -    0s
H    0     0                    5296.6200000 1073.97000  79.7%     -    0s
     0     0 1073.97000    0    8 5296.62000 1073.97000  79.7%     -    0s
H    0     0                    3182.0800000 1073.97000  66.2%     -    0s
     0     0 1073.97000    0    8 3182.08000 1073.97000  66.2%     -    0s
     0     2 1073.97000    0    8 3182.08000 1073.97000  66.2%     -    0s
*   63    11              15    3178.8100000 1081.36871  66.0%  10.6    0s
*  889   228              13    3174.9800000 1449.71292  54.3%  13.6    0s
*  893   228              15    3171.2000000 1449.71292  54.3%  13.6    0s

Cutting planes:
  Learned: 4
  Gomory: 2
  Cover: 114
  Implied bound: 62
  Clique: 2
  MIR: 15
  GUB cover: 1

Explored 3266 nodes (45085 simplex iterations) in 0.73 seconds
Thread count was 2 (of 4 available processors)

Optimal solution found (tolerance 1.00e-04)
Best objective 3.171200000000e+03, best bound 3.171200000000e+03, gap 0.0%
k_c1	8.0
k_c2	3.0000000000000284
k_c3	11.0
k_c4	97.0
k_c5	4.0
k_dN	-0.0
o_1	-0.0
o_2	0.0
o_3	0.0
o_4	-0.0
o_5	-0.0
p_1	1.0
p_2	0.0
p_3	0.0
p_4	0.0
p_5	0.0
phi_c1	-0.0
phi_c2	1.0
phi_c3	2.0
phi_c4	4.0
phi_c5	3.0
phi_dN	-0.0
pi_c1	5.000000000000011
pi_c2	-0.0
pi_c3	-0.0
pi_c4	-0.0
pi_c5	-0.0
pi_dN	-0.0
tauD_c1	65.0
tauD_c2	50.0
tauD_c3	50.0
tauD_c4	4.999999999999998
tauD_c5	83.0
tauD_d0	-0.0
tauD_dN	100.0
tauS_c1	9.0
tauS_c2	85.0
tauS_c3	-0.0
tauS_c4	87.0
tauS_c5	82.0
tauS_d0	-0.0
tauS_dN	83.0
x_c1_c5	1.0
x_c2_dN	1.0
x_c3_c1	1.0
x_c4_c3	1.0
x_c5_dN	1.0
x_d0_c2	1.0
x_d0_c4	1.0
z_c1_dN	1.0
z_d0_c1	1.0
